p cnf 7230 17
-1548 -3404 3831 0
-3418 3836 -3839 0
3418 -3837 0
-1550 -3396 -3402 3832 0
1550 -3833 0
-3837 3839 0
3396 -3833 0
-3836 3837 0
3834 3835 0
3410 -3835 0
-3410 -3834 0
-3832 3833 0
3402 -3833 0
3830 -3831 0
-3412 3839 0
3412 -3839 0
-3830 3831 0
